SCIP Status        : problem creation / modification
Total Time         :       0.01
  reading          :       0.01
Original Problem   :
  Problem name     : main4.zpl
  Variables        : 1220 (1220 binary, 0 integer, 0 implicit integer, 0 continuous)
  Constraints      : 0 initial, 1280 maximal
  Objective        : minimize, 1220 non-zeros (abs.min = 0.00459, abs.max = 5700)
